(set-logic QF_S)
(set-option :strings-exp true)
(set-option :produce-models true)
(declare-fun sigmaStar_0 () String)
(declare-fun sigmaStar_1 () String)
(declare-fun sigmaStar_6 () String)
(declare-fun literal_10 () String)
(declare-fun x_11 () String)
(declare-fun x_14 () String)
(declare-fun literal_12 () String)
(declare-fun literal_4 () String)
(assert (= literal_10 "\x2f\x69\x6d\x73\x6d\x61\x6e\x69\x66\x65\x73\x74\x2e\x78\x6d\x6c"))
(assert (= x_11 (str.++ sigmaStar_6 literal_10)))
(assert (= literal_12 "\x2f\x69\x64\x2f\x72\x65\x66\x65\x72\x65\x6e\x63\x65"))
(assert (= literal_4 "\x72\x65\x66\x65\x72\x65\x6e\x63\x65"))
(assert (or (= x_14 x_11) (= x_14 literal_12) (= x_14 literal_4)))
(assert (str.in.re x_14 (re.++ (re.* re.allchar) (re.++ (str.to.re "\x2f\x65\x76\x69\x6c") (re.* re.allchar)))))
(check-sat)
(get-model)
